SATISFIABLE
SATISFIABLE
SATISFIABLE
SATISFIABLE
SATISFIABLE
SATISFIABLE
SATISFIABLE
SATISFIABLE
SATISFIABLE
SATISFIABLE
SATISFIABLE
SATISFIABLE
SATISFIABLE
SATISFIABLE
SATISFIABLE
SATISFIABLE
SATISFIABLE
SATISFIABLE
SATISFIABLE
SATISFIABLE
SATISFIABLE
SATISFIABLE
SATISFIABLE
SATISFIABLE
SATISFIABLE
SATISFIABLE
SATISFIABLE
SATISFIABLE
SATISFIABLE
SATISFIABLE
SATISFIABLE
SATISFIABLE
SATISFIABLE
SATISFIABLE
SATISFIABLE
SATISFIABLE
SATISFIABLE
SATISFIABLE
SATISFIABLE
SATISFIABLE
SATISFIABLE
SATISFIABLE
SATISFIABLE
SATISFIABLE
